c This is a CNF SAT formula in  DIMACS CNF format,
p cnf 628 1787
1 474 -473 0
1 -474 473 0
-1 474 473 0
-1 -474 -473 0
2 479 -478 0
2 -479 478 0
-2 479 478 0
-2 -479 -478 0
3 484 -483 0
3 -484 483 0
-3 484 483 0
-3 -484 -483 0
4 489 -488 0
4 -489 488 0
-4 489 488 0
-4 -489 -488 0
5 494 -493 0
5 -494 493 0
-5 494 493 0
-5 -494 -493 0
6 499 -498 0
6 -499 498 0
-6 499 498 0
-6 -499 -498 0
7 504 -503 0
7 -504 503 0
-7 504 503 0
-7 -504 -503 0
8 509 -508 0
8 -509 508 0
-8 509 508 0
-8 -509 -508 0
9 514 -513 0
9 -514 513 0
-9 514 513 0
-9 -514 -513 0
10 519 -518 0
10 -519 518 0
-10 519 518 0
-10 -519 -518 0
11 524 -523 0
11 -524 523 0
-11 524 523 0
-11 -524 -523 0
12 529 -528 0
12 -529 528 0
-12 529 528 0
-12 -529 -528 0
13 534 -533 0
13 -534 533 0
-13 534 533 0
-13 -534 -533 0
14 539 -538 0
14 -539 538 0
-14 539 538 0
-14 -539 -538 0
15 544 -543 0
15 -544 543 0
-15 544 543 0
-15 -544 -543 0
16 549 -548 0
16 -549 548 0
-16 549 548 0
-16 -549 -548 0
17 554 -553 0
17 -554 553 0
-17 554 553 0
-17 -554 -553 0
18 559 -558 0
18 -559 558 0
-18 559 558 0
-18 -559 -558 0
19 564 -563 0
19 -564 563 0
-19 564 563 0
-19 -564 -563 0
20 569 -568 0
20 -569 568 0
-20 569 568 0
-20 -569 -568 0
21 574 -573 0
21 -574 573 0
-21 574 573 0
-21 -574 -573 0
22 579 -578 0
22 -579 578 0
-22 579 578 0
-22 -579 -578 0
23 584 -583 0
23 -584 583 0
-23 584 583 0
-23 -584 -583 0
24 589 -588 0
24 -589 588 0
-24 589 588 0
-24 -589 -588 0
25 594 -593 0
25 -594 593 0
-25 594 593 0
-25 -594 -593 0
26 599 -598 0
26 -599 598 0
-26 599 598 0
-26 -599 -598 0
27 604 -603 0
27 -604 603 0
-27 604 603 0
-27 -604 -603 0
28 609 -608 0
28 -609 608 0
-28 609 608 0
-28 -609 -608 0
29 614 -613 0
29 -614 613 0
-29 614 613 0
-29 -614 -613 0
30 619 -618 0
30 -619 618 0
-30 619 618 0
-30 -619 -618 0
31 623 -434 0
31 -623 434 0
-31 623 434 0
-31 -623 -434 0
32 627 -626 0
32 -627 626 0
-32 627 626 0
-32 -627 -626 0
33 68 -1 0
33 -68 1 0
-33 68 1 0
-33 -68 -1 0
34 70 -2 0
34 -70 2 0
-34 70 2 0
-34 -70 -2 0
35 72 -3 0
35 -72 3 0
-35 72 3 0
-35 -72 -3 0
36 74 -4 0
36 -74 4 0
-36 74 4 0
-36 -74 -4 0
37 76 -5 0
37 -76 5 0
-37 76 5 0
-37 -76 -5 0
38 78 -6 0
38 -78 6 0
-38 78 6 0
-38 -78 -6 0
39 80 -7 0
39 -80 7 0
-39 80 7 0
-39 -80 -7 0
40 82 -8 0
40 -82 8 0
-40 82 8 0
-40 -82 -8 0
41 84 -9 0
41 -84 9 0
-41 84 9 0
-41 -84 -9 0
42 86 -10 0
42 -86 10 0
-42 86 10 0
-42 -86 -10 0
43 88 -11 0
43 -88 11 0
-43 88 11 0
-43 -88 -11 0
44 90 -12 0
44 -90 12 0
-44 90 12 0
-44 -90 -12 0
45 92 -13 0
45 -92 13 0
-45 92 13 0
-45 -92 -13 0
46 94 -14 0
46 -94 14 0
-46 94 14 0
-46 -94 -14 0
47 96 -15 0
47 -96 15 0
-47 96 15 0
-47 -96 -15 0
48 98 -16 0
48 -98 16 0
-48 98 16 0
-48 -98 -16 0
49 151 -17 0
49 -151 17 0
-49 151 17 0
-49 -151 -17 0
50 153 -18 0
50 -153 18 0
-50 153 18 0
-50 -153 -18 0
51 155 -19 0
51 -155 19 0
-51 155 19 0
-51 -155 -19 0
52 157 -20 0
52 -157 20 0
-52 157 20 0
-52 -157 -20 0
53 159 -21 0
53 -159 21 0
-53 159 21 0
-53 -159 -21 0
54 161 -22 0
54 -161 22 0
-54 161 22 0
-54 -161 -22 0
55 163 -23 0
55 -163 23 0
-55 163 23 0
-55 -163 -23 0
56 165 -24 0
56 -165 24 0
-56 165 24 0
-56 -165 -24 0
57 242 -25 0
57 -242 25 0
-57 242 25 0
-57 -242 -25 0
58 244 -26 0
58 -244 26 0
-58 244 26 0
-58 -244 -26 0
59 246 -27 0
59 -246 27 0
-59 246 27 0
-59 -246 -27 0
60 248 -28 0
60 -248 28 0
-60 248 28 0
-60 -248 -28 0
61 337 -29 0
61 -337 29 0
-61 337 29 0
-61 -337 -29 0
62 339 -30 0
62 -339 30 0
-62 339 30 0
-62 -339 -30 0
63 466 -434 0
63 -466 434 0
-63 466 434 0
-63 -466 -434 0
64 626 -468 0
64 -626 468 0
-64 626 468 0
-64 -626 -468 0
-65 100 0
-65 148 0
65 -148 -100 0
66 -67 0
66 -101 0
-66 101 67 0
-67 100 0
-67 149 0
67 -149 -100 0
68 -69 0
68 -104 0
-68 104 69 0
-69 103 0
-69 151 0
69 -151 -103 0
70 -71 0
70 -107 0
-70 107 71 0
-71 106 0
-71 153 0
71 -153 -106 0
72 -73 0
72 -110 0
-72 110 73 0
-73 109 0
-73 155 0
73 -155 -109 0
74 -75 0
74 -113 0
-74 113 75 0
-75 112 0
-75 157 0
75 -157 -112 0
76 -77 0
76 -116 0
-76 116 77 0
-77 115 0
-77 159 0
77 -159 -115 0
78 -79 0
78 -119 0
-78 119 79 0
-79 118 0
-79 161 0
79 -161 -118 0
80 -81 0
80 -122 0
-80 122 81 0
-81 121 0
-81 163 0
81 -163 -121 0
82 -83 0
82 -125 0
-82 125 83 0
-83 124 0
-83 165 0
83 -165 -124 0
84 -85 0
84 -128 0
-84 128 85 0
-85 127 0
-85 242 0
85 -242 -127 0
86 -87 0
86 -131 0
-86 131 87 0
-87 130 0
-87 244 0
87 -244 -130 0
88 -89 0
88 -134 0
-88 134 89 0
-89 133 0
-89 246 0
89 -246 -133 0
90 -91 0
90 -137 0
-90 137 91 0
-91 136 0
-91 248 0
91 -248 -136 0
92 -93 0
92 -140 0
-92 140 93 0
-93 139 0
-93 337 0
93 -337 -139 0
94 -95 0
94 -143 0
-94 143 95 0
-95 142 0
-95 339 0
95 -339 -142 0
96 -97 0
96 -146 0
-96 146 97 0
-97 145 0
-97 434 0
97 -434 -145 0
98 -99 0
98 -149 0
-98 149 99 0
-99 148 0
-99 626 0
99 -626 -148 0
-100 167 0
-100 191 0
100 -191 -167 0
101 -102 0
101 -168 0
-101 168 102 0
-102 167 0
-102 192 0
102 -192 -167 0
-103 170 0
-103 194 0
103 -194 -170 0
104 -105 0
104 -171 0
-104 171 105 0
-105 170 0
-105 195 0
105 -195 -170 0
-106 173 0
-106 197 0
106 -197 -173 0
107 -108 0
107 -174 0
-107 174 108 0
-108 173 0
-108 198 0
108 -198 -173 0
-109 176 0
-109 200 0
109 -200 -176 0
110 -111 0
110 -177 0
-110 177 111 0
-111 176 0
-111 201 0
111 -201 -176 0
-112 179 0
-112 203 0
112 -203 -179 0
113 -114 0
113 -180 0
-113 180 114 0
-114 179 0
-114 204 0
114 -204 -179 0
-115 182 0
-115 206 0
115 -206 -182 0
116 -117 0
116 -183 0
-116 183 117 0
-117 182 0
-117 207 0
117 -207 -182 0
-118 185 0
-118 209 0
118 -209 -185 0
119 -120 0
119 -186 0
-119 186 120 0
-120 185 0
-120 210 0
120 -210 -185 0
-121 188 0
-121 212 0
121 -212 -188 0
122 -123 0
122 -189 0
-122 189 123 0
-123 188 0
-123 213 0
123 -213 -188 0
-124 191 0
-124 215 0
124 -215 -191 0
125 -126 0
125 -192 0
-125 192 126 0
-126 191 0
-126 216 0
126 -216 -191 0
-127 194 0
-127 218 0
127 -218 -194 0
128 -129 0
128 -195 0
-128 195 129 0
-129 194 0
-129 219 0
129 -219 -194 0
-130 197 0
-130 221 0
130 -221 -197 0
131 -132 0
131 -198 0
-131 198 132 0
-132 197 0
-132 222 0
132 -222 -197 0
-133 200 0
-133 224 0
133 -224 -200 0
134 -135 0
134 -201 0
-134 201 135 0
-135 200 0
-135 225 0
135 -225 -200 0
-136 203 0
-136 227 0
136 -227 -203 0
137 -138 0
137 -204 0
-137 204 138 0
-138 203 0
-138 228 0
138 -228 -203 0
-139 206 0
-139 230 0
139 -230 -206 0
140 -141 0
140 -207 0
-140 207 141 0
-141 206 0
-141 231 0
141 -231 -206 0
-142 209 0
-142 233 0
142 -233 -209 0
143 -144 0
143 -210 0
-143 210 144 0
-144 209 0
-144 234 0
144 -234 -209 0
-145 212 0
-145 236 0
145 -236 -212 0
146 -147 0
146 -213 0
-146 213 147 0
-147 212 0
-147 237 0
147 -237 -212 0
-148 215 0
-148 239 0
148 -239 -215 0
149 -150 0
149 -216 0
-149 216 150 0
-150 215 0
-150 240 0
150 -240 -215 0
151 -152 0
151 -219 0
-151 219 152 0
-152 218 0
-152 242 0
152 -242 -218 0
153 -154 0
153 -222 0
-153 222 154 0
-154 221 0
-154 244 0
154 -244 -221 0
155 -156 0
155 -225 0
-155 225 156 0
-156 224 0
-156 246 0
156 -246 -224 0
157 -158 0
157 -228 0
-157 228 158 0
-158 227 0
-158 248 0
158 -248 -227 0
159 -160 0
159 -231 0
-159 231 160 0
-160 230 0
-160 337 0
160 -337 -230 0
161 -162 0
161 -234 0
-161 234 162 0
-162 233 0
-162 339 0
162 -339 -233 0
163 -164 0
163 -237 0
-163 237 164 0
-164 236 0
-164 434 0
164 -434 -236 0
165 -166 0
165 -240 0
-165 240 166 0
-166 239 0
-166 626 0
166 -626 -239 0
-167 250 0
-167 262 0
167 -262 -250 0
168 -169 0
168 -251 0
-168 251 169 0
-169 250 0
-169 263 0
169 -263 -250 0
-170 253 0
-170 265 0
170 -265 -253 0
171 -172 0
171 -254 0
-171 254 172 0
-172 253 0
-172 266 0
172 -266 -253 0
-173 256 0
-173 268 0
173 -268 -256 0
174 -175 0
174 -257 0
-174 257 175 0
-175 256 0
-175 269 0
175 -269 -256 0
-176 259 0
-176 271 0
176 -271 -259 0
177 -178 0
177 -260 0
-177 260 178 0
-178 259 0
-178 272 0
178 -272 -259 0
-179 262 0
-179 274 0
179 -274 -262 0
180 -181 0
180 -263 0
-180 263 181 0
-181 262 0
-181 275 0
181 -275 -262 0
-182 265 0
-182 277 0
182 -277 -265 0
183 -184 0
183 -266 0
-183 266 184 0
-184 265 0
-184 278 0
184 -278 -265 0
-185 268 0
-185 280 0
185 -280 -268 0
186 -187 0
186 -269 0
-186 269 187 0
-187 268 0
-187 281 0
187 -281 -268 0
-188 271 0
-188 283 0
188 -283 -271 0
189 -190 0
189 -272 0
-189 272 190 0
-190 271 0
-190 284 0
190 -284 -271 0
-191 274 0
-191 286 0
191 -286 -274 0
192 -193 0
192 -275 0
-192 275 193 0
-193 274 0
-193 287 0
193 -287 -274 0
-194 277 0
-194 289 0
194 -289 -277 0
195 -196 0
195 -278 0
-195 278 196 0
-196 277 0
-196 290 0
196 -290 -277 0
-197 280 0
-197 292 0
197 -292 -280 0
198 -199 0
198 -281 0
-198 281 199 0
-199 280 0
-199 293 0
199 -293 -280 0
-200 283 0
-200 295 0
200 -295 -283 0
201 -202 0
201 -284 0
-201 284 202 0
-202 283 0
-202 296 0
202 -296 -283 0
-203 286 0
-203 298 0
203 -298 -286 0
204 -205 0
204 -287 0
-204 287 205 0
-205 286 0
-205 299 0
205 -299 -286 0
-206 289 0
-206 301 0
206 -301 -289 0
207 -208 0
207 -290 0
-207 290 208 0
-208 289 0
-208 302 0
208 -302 -289 0
-209 292 0
-209 304 0
209 -304 -292 0
210 -211 0
210 -293 0
-210 293 211 0
-211 292 0
-211 305 0
211 -305 -292 0
-212 295 0
-212 307 0
212 -307 -295 0
213 -214 0
213 -296 0
-213 296 214 0
-214 295 0
-214 308 0
214 -308 -295 0
-215 298 0
-215 310 0
215 -310 -298 0
216 -217 0
216 -299 0
-216 299 217 0
-217 298 0
-217 311 0
217 -311 -298 0
-218 301 0
-218 313 0
218 -313 -301 0
219 -220 0
219 -302 0
-219 302 220 0
-220 301 0
-220 314 0
220 -314 -301 0
-221 304 0
-221 316 0
221 -316 -304 0
222 -223 0
222 -305 0
-222 305 223 0
-223 304 0
-223 317 0
223 -317 -304 0
-224 307 0
-224 319 0
224 -319 -307 0
225 -226 0
225 -308 0
-225 308 226 0
-226 307 0
-226 320 0
226 -320 -307 0
-227 310 0
-227 322 0
227 -322 -310 0
228 -229 0
228 -311 0
-228 311 229 0
-229 310 0
-229 323 0
229 -323 -310 0
-230 313 0
-230 325 0
230 -325 -313 0
231 -232 0
231 -314 0
-231 314 232 0
-232 313 0
-232 326 0
232 -326 -313 0
-233 316 0
-233 328 0
233 -328 -316 0
234 -235 0
234 -317 0
-234 317 235 0
-235 316 0
-235 329 0
235 -329 -316 0
-236 319 0
-236 331 0
236 -331 -319 0
237 -238 0
237 -320 0
-237 320 238 0
-238 319 0
-238 332 0
238 -332 -319 0
-239 322 0
-239 334 0
239 -334 -322 0
240 -241 0
240 -323 0
-240 323 241 0
-241 322 0
-241 335 0
241 -335 -322 0
242 -243 0
242 -326 0
-242 326 243 0
-243 325 0
-243 337 0
243 -337 -325 0
244 -245 0
244 -329 0
-244 329 245 0
-245 328 0
-245 339 0
245 -339 -328 0
246 -247 0
246 -332 0
-246 332 247 0
-247 331 0
-247 434 0
247 -434 -331 0
248 -249 0
248 -335 0
-248 335 249 0
-249 334 0
-249 626 0
249 -626 -334 0
-250 341 0
-250 347 0
250 -347 -341 0
251 -252 0
251 -342 0
-251 342 252 0
-252 341 0
-252 348 0
252 -348 -341 0
-253 344 0
-253 350 0
253 -350 -344 0
254 -255 0
254 -345 0
-254 345 255 0
-255 344 0
-255 351 0
255 -351 -344 0
-256 347 0
-256 353 0
256 -353 -347 0
257 -258 0
257 -348 0
-257 348 258 0
-258 347 0
-258 354 0
258 -354 -347 0
-259 350 0
-259 356 0
259 -356 -350 0
260 -261 0
260 -351 0
-260 351 261 0
-261 350 0
-261 357 0
261 -357 -350 0
-262 353 0
-262 359 0
262 -359 -353 0
263 -264 0
263 -354 0
-263 354 264 0
-264 353 0
-264 360 0
264 -360 -353 0
-265 356 0
-265 362 0
265 -362 -356 0
266 -267 0
266 -357 0
-266 357 267 0
-267 356 0
-267 363 0
267 -363 -356 0
-268 359 0
-268 365 0
268 -365 -359 0
269 -270 0
269 -360 0
-269 360 270 0
-270 359 0
-270 366 0
270 -366 -359 0
-271 362 0
-271 368 0
271 -368 -362 0
272 -273 0
272 -363 0
-272 363 273 0
-273 362 0
-273 369 0
273 -369 -362 0
-274 365 0
-274 371 0
274 -371 -365 0
275 -276 0
275 -366 0
-275 366 276 0
-276 365 0
-276 372 0
276 -372 -365 0
-277 368 0
-277 374 0
277 -374 -368 0
278 -279 0
278 -369 0
-278 369 279 0
-279 368 0
-279 375 0
279 -375 -368 0
-280 371 0
-280 377 0
280 -377 -371 0
281 -282 0
281 -372 0
-281 372 282 0
-282 371 0
-282 378 0
282 -378 -371 0
-283 374 0
-283 380 0
283 -380 -374 0
284 -285 0
284 -375 0
-284 375 285 0
-285 374 0
-285 381 0
285 -381 -374 0
-286 377 0
-286 383 0
286 -383 -377 0
287 -288 0
287 -378 0
-287 378 288 0
-288 377 0
-288 384 0
288 -384 -377 0
-289 380 0
-289 386 0
289 -386 -380 0
290 -291 0
290 -381 0
-290 381 291 0
-291 380 0
-291 387 0
291 -387 -380 0
-292 383 0
-292 389 0
292 -389 -383 0
293 -294 0
293 -384 0
-293 384 294 0
-294 383 0
-294 390 0
294 -390 -383 0
-295 386 0
-295 392 0
295 -392 -386 0
296 -297 0
296 -387 0
-296 387 297 0
-297 386 0
-297 393 0
297 -393 -386 0
-298 389 0
-298 395 0
298 -395 -389 0
299 -300 0
299 -390 0
-299 390 300 0
-300 389 0
-300 396 0
300 -396 -389 0
-301 392 0
-301 398 0
301 -398 -392 0
302 -303 0
302 -393 0
-302 393 303 0
-303 392 0
-303 399 0
303 -399 -392 0
-304 395 0
-304 401 0
304 -401 -395 0
305 -306 0
305 -396 0
-305 396 306 0
-306 395 0
-306 402 0
306 -402 -395 0
-307 398 0
-307 404 0
307 -404 -398 0
308 -309 0
308 -399 0
-308 399 309 0
-309 398 0
-309 405 0
309 -405 -398 0
-310 401 0
-310 407 0
310 -407 -401 0
311 -312 0
311 -402 0
-311 402 312 0
-312 401 0
-312 408 0
312 -408 -401 0
-313 404 0
-313 410 0
313 -410 -404 0
314 -315 0
314 -405 0
-314 405 315 0
-315 404 0
-315 411 0
315 -411 -404 0
-316 407 0
-316 413 0
316 -413 -407 0
317 -318 0
317 -408 0
-317 408 318 0
-318 407 0
-318 414 0
318 -414 -407 0
-319 410 0
-319 416 0
319 -416 -410 0
320 -321 0
320 -411 0
-320 411 321 0
-321 410 0
-321 417 0
321 -417 -410 0
-322 413 0
-322 419 0
322 -419 -413 0
323 -324 0
323 -414 0
-323 414 324 0
-324 413 0
-324 420 0
324 -420 -413 0
-325 416 0
-325 422 0
325 -422 -416 0
326 -327 0
326 -417 0
-326 417 327 0
-327 416 0
-327 423 0
327 -423 -416 0
-328 419 0
-328 425 0
328 -425 -419 0
329 -330 0
329 -420 0
-329 420 330 0
-330 419 0
-330 426 0
330 -426 -419 0
-331 422 0
-331 428 0
331 -428 -422 0
332 -333 0
332 -423 0
-332 423 333 0
-333 422 0
-333 429 0
333 -429 -422 0
-334 425 0
-334 431 0
334 -431 -425 0
335 -336 0
335 -426 0
-335 426 336 0
-336 425 0
-336 432 0
336 -432 -425 0
337 -338 0
337 -429 0
-337 429 338 0
-338 428 0
-338 434 0
338 -434 -428 0
339 -340 0
339 -432 0
-339 432 340 0
-340 431 0
-340 626 0
340 -626 -431 0
-341 1 0
-341 2 0
341 -2 -1 0
342 -343 0
342 -436 0
-342 436 343 0
-343 1 0
-343 437 0
343 -437 -1 0
-344 2 0
-344 3 0
344 -3 -2 0
345 -346 0
345 -437 0
-345 437 346 0
-346 2 0
-346 438 0
346 -438 -2 0
-347 3 0
-347 4 0
347 -4 -3 0
348 -349 0
348 -438 0
-348 438 349 0
-349 3 0
-349 439 0
349 -439 -3 0
-350 4 0
-350 5 0
350 -5 -4 0
351 -352 0
351 -439 0
-351 439 352 0
-352 4 0
-352 440 0
352 -440 -4 0
-353 5 0
-353 6 0
353 -6 -5 0
354 -355 0
354 -440 0
-354 440 355 0
-355 5 0
-355 441 0
355 -441 -5 0
-356 6 0
-356 7 0
356 -7 -6 0
357 -358 0
357 -441 0
-357 441 358 0
-358 6 0
-358 442 0
358 -442 -6 0
-359 7 0
-359 8 0
359 -8 -7 0
360 -361 0
360 -442 0
-360 442 361 0
-361 7 0
-361 443 0
361 -443 -7 0
-362 8 0
-362 9 0
362 -9 -8 0
363 -364 0
363 -443 0
-363 443 364 0
-364 8 0
-364 444 0
364 -444 -8 0
-365 9 0
-365 10 0
365 -10 -9 0
366 -367 0
366 -444 0
-366 444 367 0
-367 9 0
-367 445 0
367 -445 -9 0
-368 10 0
-368 11 0
368 -11 -10 0
369 -370 0
369 -445 0
-369 445 370 0
-370 10 0
-370 446 0
370 -446 -10 0
-371 11 0
-371 12 0
371 -12 -11 0
372 -373 0
372 -446 0
-372 446 373 0
-373 11 0
-373 447 0
373 -447 -11 0
-374 12 0
-374 13 0
374 -13 -12 0
375 -376 0
375 -447 0
-375 447 376 0
-376 12 0
-376 448 0
376 -448 -12 0
-377 13 0
-377 14 0
377 -14 -13 0
378 -379 0
378 -448 0
-378 448 379 0
-379 13 0
-379 449 0
379 -449 -13 0
-380 14 0
-380 15 0
380 -15 -14 0
381 -382 0
381 -449 0
-381 449 382 0
-382 14 0
-382 450 0
382 -450 -14 0
-383 15 0
-383 16 0
383 -16 -15 0
384 -385 0
384 -450 0
-384 450 385 0
-385 15 0
-385 451 0
385 -451 -15 0
-386 16 0
-386 17 0
386 -17 -16 0
387 -388 0
387 -451 0
-387 451 388 0
-388 16 0
-388 452 0
388 -452 -16 0
-389 17 0
-389 18 0
389 -18 -17 0
390 -391 0
390 -452 0
-390 452 391 0
-391 17 0
-391 453 0
391 -453 -17 0
-392 18 0
-392 19 0
392 -19 -18 0
393 -394 0
393 -453 0
-393 453 394 0
-394 18 0
-394 454 0
394 -454 -18 0
-395 19 0
-395 20 0
395 -20 -19 0
396 -397 0
396 -454 0
-396 454 397 0
-397 19 0
-397 455 0
397 -455 -19 0
-398 20 0
-398 21 0
398 -21 -20 0
399 -400 0
399 -455 0
-399 455 400 0
-400 20 0
-400 456 0
400 -456 -20 0
-401 21 0
-401 22 0
401 -22 -21 0
402 -403 0
402 -456 0
-402 456 403 0
-403 21 0
-403 457 0
403 -457 -21 0
-404 22 0
-404 23 0
404 -23 -22 0
405 -406 0
405 -457 0
-405 457 406 0
-406 22 0
-406 458 0
406 -458 -22 0
-407 23 0
-407 24 0
407 -24 -23 0
408 -409 0
408 -458 0
-408 458 409 0
-409 23 0
-409 459 0
409 -459 -23 0
-410 24 0
-410 25 0
410 -25 -24 0
411 -412 0
411 -459 0
-411 459 412 0
-412 24 0
-412 460 0
412 -460 -24 0
-413 25 0
-413 26 0
413 -26 -25 0
414 -415 0
414 -460 0
-414 460 415 0
-415 25 0
-415 461 0
415 -461 -25 0
-416 26 0
-416 27 0
416 -27 -26 0
417 -418 0
417 -461 0
-417 461 418 0
-418 26 0
-418 462 0
418 -462 -26 0
-419 27 0
-419 28 0
419 -28 -27 0
420 -421 0
420 -462 0
-420 462 421 0
-421 27 0
-421 463 0
421 -463 -27 0
-422 28 0
-422 29 0
422 -29 -28 0
423 -424 0
423 -463 0
-423 463 424 0
-424 28 0
-424 464 0
424 -464 -28 0
-425 29 0
-425 30 0
425 -30 -29 0
426 -427 0
426 -464 0
-426 464 427 0
-427 29 0
-427 465 0
427 -465 -29 0
-428 30 0
-428 466 0
428 -466 -30 0
429 -430 0
429 -465 0
-429 465 430 0
-430 30 0
-430 467 0
430 -467 -30 0
-431 466 0
-431 468 0
431 -468 -466 0
432 -433 0
432 -467 0
-432 467 433 0
-433 466 0
-433 469 0
433 -469 -466 0
434 -435 0
434 -469 0
-434 469 435 0
-435 468 0
-435 626 0
435 -626 -468 0
-436 473 0
-436 474 0
436 -474 -473 0
-437 478 0
-437 479 0
437 -479 -478 0
-438 483 0
-438 484 0
438 -484 -483 0
-439 488 0
-439 489 0
439 -489 -488 0
-440 493 0
-440 494 0
440 -494 -493 0
-441 498 0
-441 499 0
441 -499 -498 0
-442 503 0
-442 504 0
442 -504 -503 0
-443 508 0
-443 509 0
443 -509 -508 0
-444 513 0
-444 514 0
444 -514 -513 0
-445 518 0
-445 519 0
445 -519 -518 0
-446 523 0
-446 524 0
446 -524 -523 0
-447 528 0
-447 529 0
447 -529 -528 0
-448 533 0
-448 534 0
448 -534 -533 0
-449 538 0
-449 539 0
449 -539 -538 0
-450 543 0
-450 544 0
450 -544 -543 0
-451 548 0
-451 549 0
451 -549 -548 0
-452 553 0
-452 554 0
452 -554 -553 0
-453 558 0
-453 559 0
453 -559 -558 0
-454 563 0
-454 564 0
454 -564 -563 0
-455 568 0
-455 569 0
455 -569 -568 0
-456 573 0
-456 574 0
456 -574 -573 0
-457 578 0
-457 579 0
457 -579 -578 0
-458 583 0
-458 584 0
458 -584 -583 0
-459 588 0
-459 589 0
459 -589 -588 0
-460 593 0
-460 594 0
460 -594 -593 0
-461 598 0
-461 599 0
461 -599 -598 0
-462 603 0
-462 604 0
462 -604 -603 0
-463 608 0
-463 609 0
463 -609 -608 0
-464 613 0
-464 614 0
464 -614 -613 0
-465 618 0
-465 619 0
465 -619 -618 0
466 624 -623 0
466 -624 623 0
-466 624 623 0
-466 -624 -623 0
-467 623 0
-467 624 0
467 -624 -623 0
468 628 -627 0
468 -628 627 0
-468 628 627 0
-468 -628 -627 0
-469 627 0
-469 628 0
469 -628 -627 0
470 -436 0
470 -471 0
-470 471 436 0
-471 1 0
-471 475 0
471 -475 -1 0
472 475 -1 0
472 -475 1 0
-472 475 1 0
-472 -475 -1 0
475 -437 0
475 -476 0
-475 476 437 0
-476 2 0
-476 480 0
476 -480 -2 0
477 480 -2 0
477 -480 2 0
-477 480 2 0
-477 -480 -2 0
480 -438 0
480 -481 0
-480 481 438 0
-481 3 0
-481 485 0
481 -485 -3 0
482 485 -3 0
482 -485 3 0
-482 485 3 0
-482 -485 -3 0
485 -439 0
485 -486 0
-485 486 439 0
-486 4 0
-486 490 0
486 -490 -4 0
487 490 -4 0
487 -490 4 0
-487 490 4 0
-487 -490 -4 0
490 -440 0
490 -491 0
-490 491 440 0
-491 5 0
-491 495 0
491 -495 -5 0
492 495 -5 0
492 -495 5 0
-492 495 5 0
-492 -495 -5 0
495 -441 0
495 -496 0
-495 496 441 0
-496 6 0
-496 500 0
496 -500 -6 0
497 500 -6 0
497 -500 6 0
-497 500 6 0
-497 -500 -6 0
500 -442 0
500 -501 0
-500 501 442 0
-501 7 0
-501 505 0
501 -505 -7 0
502 505 -7 0
502 -505 7 0
-502 505 7 0
-502 -505 -7 0
505 -443 0
505 -506 0
-505 506 443 0
-506 8 0
-506 510 0
506 -510 -8 0
507 510 -8 0
507 -510 8 0
-507 510 8 0
-507 -510 -8 0
510 -444 0
510 -511 0
-510 511 444 0
-511 9 0
-511 515 0
511 -515 -9 0
512 515 -9 0
512 -515 9 0
-512 515 9 0
-512 -515 -9 0
515 -445 0
515 -516 0
-515 516 445 0
-516 10 0
-516 520 0
516 -520 -10 0
517 520 -10 0
517 -520 10 0
-517 520 10 0
-517 -520 -10 0
520 -446 0
520 -521 0
-520 521 446 0
-521 11 0
-521 525 0
521 -525 -11 0
522 525 -11 0
522 -525 11 0
-522 525 11 0
-522 -525 -11 0
525 -447 0
525 -526 0
-525 526 447 0
-526 12 0
-526 530 0
526 -530 -12 0
527 530 -12 0
527 -530 12 0
-527 530 12 0
-527 -530 -12 0
530 -448 0
530 -531 0
-530 531 448 0
-531 13 0
-531 535 0
531 -535 -13 0
532 535 -13 0
532 -535 13 0
-532 535 13 0
-532 -535 -13 0
535 -449 0
535 -536 0
-535 536 449 0
-536 14 0
-536 540 0
536 -540 -14 0
537 540 -14 0
537 -540 14 0
-537 540 14 0
-537 -540 -14 0
540 -450 0
540 -541 0
-540 541 450 0
-541 15 0
-541 545 0
541 -545 -15 0
542 545 -15 0
542 -545 15 0
-542 545 15 0
-542 -545 -15 0
545 -451 0
545 -546 0
-545 546 451 0
-546 16 0
-546 550 0
546 -550 -16 0
547 550 -16 0
547 -550 16 0
-547 550 16 0
-547 -550 -16 0
550 -452 0
550 -551 0
-550 551 452 0
-551 17 0
-551 555 0
551 -555 -17 0
552 555 -17 0
552 -555 17 0
-552 555 17 0
-552 -555 -17 0
555 -453 0
555 -556 0
-555 556 453 0
-556 18 0
-556 560 0
556 -560 -18 0
557 560 -18 0
557 -560 18 0
-557 560 18 0
-557 -560 -18 0
560 -454 0
560 -561 0
-560 561 454 0
-561 19 0
-561 565 0
561 -565 -19 0
562 565 -19 0
562 -565 19 0
-562 565 19 0
-562 -565 -19 0
565 -455 0
565 -566 0
-565 566 455 0
-566 20 0
-566 570 0
566 -570 -20 0
567 570 -20 0
567 -570 20 0
-567 570 20 0
-567 -570 -20 0
570 -456 0
570 -571 0
-570 571 456 0
-571 21 0
-571 575 0
571 -575 -21 0
572 575 -21 0
572 -575 21 0
-572 575 21 0
-572 -575 -21 0
575 -457 0
575 -576 0
-575 576 457 0
-576 22 0
-576 580 0
576 -580 -22 0
577 580 -22 0
577 -580 22 0
-577 580 22 0
-577 -580 -22 0
580 -458 0
580 -581 0
-580 581 458 0
-581 23 0
-581 585 0
581 -585 -23 0
582 585 -23 0
582 -585 23 0
-582 585 23 0
-582 -585 -23 0
585 -459 0
585 -586 0
-585 586 459 0
-586 24 0
-586 590 0
586 -590 -24 0
587 590 -24 0
587 -590 24 0
-587 590 24 0
-587 -590 -24 0
590 -460 0
590 -591 0
-590 591 460 0
-591 25 0
-591 595 0
591 -595 -25 0
592 595 -25 0
592 -595 25 0
-592 595 25 0
-592 -595 -25 0
595 -461 0
595 -596 0
-595 596 461 0
-596 26 0
-596 600 0
596 -600 -26 0
597 600 -26 0
597 -600 26 0
-597 600 26 0
-597 -600 -26 0
600 -462 0
600 -601 0
-600 601 462 0
-601 27 0
-601 605 0
601 -605 -27 0
602 605 -27 0
602 -605 27 0
-602 605 27 0
-602 -605 -27 0
605 -463 0
605 -606 0
-605 606 463 0
-606 28 0
-606 610 0
606 -610 -28 0
607 610 -28 0
607 -610 28 0
-607 610 28 0
-607 -610 -28 0
610 -464 0
610 -611 0
-610 611 464 0
-611 29 0
-611 615 0
611 -615 -29 0
612 615 -29 0
612 -615 29 0
-612 615 29 0
-612 -615 -29 0
615 -465 0
615 -616 0
-615 616 465 0
-616 30 0
-616 620 0
616 -620 -30 0
617 620 -30 0
617 -620 30 0
-617 620 30 0
-617 -620 -30 0
620 -467 0
620 -621 0
-620 621 467 0
-621 434 0
-621 466 0
621 -466 -434 0
622 624 -31 0
622 -624 31 0
-622 624 31 0
-622 -624 -31 0
625 628 -32 0
625 -628 32 0
-625 628 32 0
-625 -628 -32 0
